minizinc/sudoku_problems2/sudoku_p34.dzn
%
% sudoku_p34.dzn
% See http://www.hakank.org/minizinc/sudoku_gcc.mzn
% 
% This problem is problem 34 from
% Gecode's sudoku.cpp
% http://www.gecode.org/gecode-doc-latest/sudoku_8cpp-source.html
% 
x = array2d(1..n, 1..n, [   
% 55 16x16 instances (mostly harmless) from janko.at// http://janko.at/Raetsel/Sudoku/301.a.htm
% 34
 13,  9,  2,  _,  _,  _,  _,  _, 16,  _,  _,  _,  4,  3,  _,  _,
  4, 12, 15,  _,  _,  _,  _,  _,  9, 13,  _,  2,  _,  6, 14, 11,
  _, 14,  _,  1,  _,  _,  _,  _, 15,  _,  8, 11, 12,  _,  _, 10,
 16,  5,  6,  _,  _,  _,  _,  _, 10,  3, 12,  _,  _,  _,  _,  1,
  _,  7, 16,  5, 10,  8,  _,  _,  _,  _,  6,  1,  _,  _,  _,  _,
  2,  _,  _,  _, 12,  _,  _,  _,  _, 11,  7,  _,  _,  _,  _,  _,
  _,  _, 10, 14,  _,  9,  6,  4,  _,  _, 16,  _,  _,  _,  _,  _,
  _, 15,  9,  _,  5,  _,  7,  _,  4,  _,  _,  _,  _,  _,  _,  _,
  _,  _,  _,  _,  _,  2,  9,  _,  _,  _,  _, 10,  _, 12,  _,  _,
  _,  _,  _,  _,  _,  _,  _,  _,  6,  4,  5, 13,  _,  1,  _,  _,
  _,  _,  _,  _, 13,  _,  _,  _,  _,  1,  _, 12,  _, 11,  7, 15,
  _,  _,  _,  _,  _, 14,  _, 12,  2, 16,  _,  _,  _,  8, 10,  9,
 11,  _,  _,  9,  _, 16,  5,  2,  _,  _,  _,  _,  _, 14, 15,  6,
  _,  2,  5,  6,  _,  _, 15,  _,  _,  _,  _,  _, 13,  _, 11,  _,
 14,  1,  3,  _,  6,  _, 13,  _,  _,  _,  _,  _,  _,  _,  _,  7,
 10,  _,  _,  _,  8, 11, 12,  3,  _,  _,  _,  _,  9,  5,  4,  _
]);

n = 16;


